p tw 143 142
1 2
2 56
3 14
4 5
5 6
6 7
7 8
8 9
9 10
10 11
11 12
12 13
13 15
14 25
15 16
16 17
17 18
18 19
19 20
20 21
21 22
22 23
23 24
24 26
25 36
26 27
27 28
28 29
29 30
30 31
31 32
32 33
33 34
34 35
35 37
36 47
37 38
38 39
39 40
40 41
41 42
42 43
43 44
44 45
45 46
46 48
47 51
48 49
49 50
51 52
52 53
53 54
54 55
55 57
56 67
57 58
58 59
59 60
60 61
61 62
62 63
63 64
64 65
65 66
66 68
67 78
68 69
69 70
70 71
71 72
72 73
73 74
74 75
75 76
76 77
77 79
78 89
79 80
80 81
81 82
82 83
83 84
84 85
85 86
86 87
87 88
88 90
89 100
90 91
91 92
92 93
93 94
94 95
95 96
96 97
97 98
98 99
99 101
100 111
101 102
102 103
103 104
104 105
105 106
106 107
107 108
108 109
109 110
110 112
111 122
112 113
113 114
114 115
115 116
116 117
117 118
118 119
119 120
120 121
121 123
122 133
123 124
124 125
125 126
126 127
127 128
128 129
129 130
130 131
131 132
132 134
133 3
134 135
135 136
136 137
137 138
138 139
139 140
140 141
141 142
142 143
143 4
